NAME          DCAP_3_4_2_500_SS373
ROWS
 N  OBJ
 L  CON1
 L  CON2
 L  CON3
 L  CON4
 L  CON5
 L  CON6
 L  CON7
 L  CON8
 L  CON9
 L  CON10
 L  CON11
 L  CON12
 E  CON13
 E  CON14
 E  CON15
 E  CON16
 E  CON17
 E  CON18
 E  CON19
 E  CON20
COLUMNS
    x[1,1]    OBJ       6.180167      CON1      1.000000    
    x[1,1]    CON7      -1.000000     CON8      -1.000000   
    x[1,2]    OBJ       5.039546      CON2      1.000000    
    x[1,2]    CON8      -1.000000   
    x[2,1]    OBJ       6.732585      CON3      1.000000    
    x[2,1]    CON9      -1.000000     CON10     -1.000000   
    x[2,2]    OBJ       7.443064      CON4      1.000000    
    x[2,2]    CON10     -1.000000   
    x[3,1]    OBJ       6.563535      CON5      1.000000    
    x[3,1]    CON11     -1.000000     CON12     -1.000000   
    x[3,2]    OBJ       6.054841      CON6      1.000000    
    x[3,2]    CON12     -1.000000   
    MARKER    'MARKER'                'INTORG'
    u[1,1]    OBJ       48.076654     CON1      -1.000000   
    u[1,2]    OBJ       49.466655     CON2      -1.000000   
    u[2,1]    OBJ       49.996186     CON3      -1.000000   
    u[2,2]    OBJ       32.230043     CON4      -1.000000   
    u[3,1]    OBJ       20.066487     CON5      -1.000000   
    u[3,2]    OBJ       27.484319     CON6      -1.000000   
    y[1,1,1]  OBJ       9.415455      CON7      1.418828    
    y[1,1,1]  CON13     1.000000    
    y[1,1,2]  OBJ       9.614770      CON8      1.030731    
    y[1,1,2]  CON14     1.000000    
    y[1,2,1]  OBJ       6.430407      CON7      0.947610    
    y[1,2,1]  CON15     1.000000    
    y[1,2,2]  OBJ       7.513313      CON8      0.518024    
    y[1,2,2]  CON16     1.000000    
    y[1,3,1]  OBJ       8.650862      CON7      0.584711    
    y[1,3,1]  CON17     1.000000    
    y[1,3,2]  OBJ       7.539704      CON8      0.932864    
    y[1,3,2]  CON18     1.000000    
    y[1,4,1]  OBJ       5.634196      CON7      0.648096    
    y[1,4,1]  CON19     1.000000    
    y[1,4,2]  OBJ       9.784077      CON8      0.854001    
    y[1,4,2]  CON20     1.000000    
    y[2,1,1]  OBJ       9.919671      CON9      1.418828    
    y[2,1,1]  CON13     1.000000    
    y[2,1,2]  OBJ       8.989216      CON10     1.030731    
    y[2,1,2]  CON14     1.000000    
    y[2,2,1]  OBJ       9.508200      CON9      0.947610    
    y[2,2,1]  CON15     1.000000    
    y[2,2,2]  OBJ       8.661491      CON10     0.518024    
    y[2,2,2]  CON16     1.000000    
    y[2,3,1]  OBJ       8.365703      CON9      0.584711    
    y[2,3,1]  CON17     1.000000    
    y[2,3,2]  OBJ       5.531890      CON10     0.932864    
    y[2,3,2]  CON18     1.000000    
    y[2,4,1]  OBJ       9.177556      CON9      0.648096    
    y[2,4,1]  CON19     1.000000    
    y[2,4,2]  OBJ       9.383330      CON10     0.854001    
    y[2,4,2]  CON20     1.000000    
    y[3,1,1]  OBJ       8.243678      CON11     1.418828    
    y[3,1,1]  CON13     1.000000    
    y[3,1,2]  OBJ       7.485310      CON12     1.030731    
    y[3,1,2]  CON14     1.000000    
    y[3,2,1]  OBJ       5.089199      CON11     0.947610    
    y[3,2,1]  CON15     1.000000    
    y[3,2,2]  OBJ       6.260463      CON12     0.518024    
    y[3,2,2]  CON16     1.000000    
    y[3,3,1]  OBJ       7.597157      CON11     0.584711    
    y[3,3,1]  CON17     1.000000    
    y[3,3,2]  OBJ       5.062757      CON12     0.932864    
    y[3,3,2]  CON18     1.000000    
    y[3,4,1]  OBJ       6.332334      CON11     0.648096    
    y[3,4,1]  CON19     1.000000    
    y[3,4,2]  OBJ       5.344825      CON12     0.854001    
    y[3,4,2]  CON20     1.000000    
    z[1,1]    OBJ       897.217539    CON13     1.000000    
    z[1,2]    OBJ       811.525423    CON14     1.000000    
    z[2,1]    OBJ       699.196614    CON15     1.000000    
    z[2,2]    OBJ       907.158783    CON16     1.000000    
    z[3,1]    OBJ       612.295526    CON17     1.000000    
    z[3,2]    OBJ       948.301831    CON18     1.000000    
    z[4,1]    OBJ       591.896517    CON19     1.000000    
    z[4,2]    OBJ       782.035730    CON20     1.000000    
    MARKER    'MARKER'                 'INTEND'
RHS
    RHS       CON1      -0.000000     CON2      -0.000000   
    RHS       CON3      -0.000000     CON4      -0.000000   
    RHS       CON5      -0.000000     CON6      -0.000000   
    RHS       CON7      -0.000000     CON8      -0.000000   
    RHS       CON9      -0.000000     CON10     -0.000000   
    RHS       CON11     -0.000000     CON12     -0.000000   
    RHS       CON13     1.000000      CON14     1.000000    
    RHS       CON15     1.000000      CON16     1.000000    
    RHS       CON17     1.000000      CON18     1.000000    
    RHS       CON19     1.000000      CON20     1.000000    
BOUNDS
 BV BOUND     u[1,1]  
 BV BOUND     u[1,2]  
 BV BOUND     u[2,1]  
 BV BOUND     u[2,2]  
 BV BOUND     u[3,1]  
 BV BOUND     u[3,2]  
 BV BOUND     y[1,1,1]
 BV BOUND     y[1,1,2]
 BV BOUND     y[1,2,1]
 BV BOUND     y[1,2,2]
 BV BOUND     y[1,3,1]
 BV BOUND     y[1,3,2]
 BV BOUND     y[1,4,1]
 BV BOUND     y[1,4,2]
 BV BOUND     y[2,1,1]
 BV BOUND     y[2,1,2]
 BV BOUND     y[2,2,1]
 BV BOUND     y[2,2,2]
 BV BOUND     y[2,3,1]
 BV BOUND     y[2,3,2]
 BV BOUND     y[2,4,1]
 BV BOUND     y[2,4,2]
 BV BOUND     y[3,1,1]
 BV BOUND     y[3,1,2]
 BV BOUND     y[3,2,1]
 BV BOUND     y[3,2,2]
 BV BOUND     y[3,3,1]
 BV BOUND     y[3,3,2]
 BV BOUND     y[3,4,1]
 BV BOUND     y[3,4,2]
 BV BOUND     z[1,1]  
 BV BOUND     z[1,2]  
 BV BOUND     z[2,1]  
 BV BOUND     z[2,2]  
 BV BOUND     z[3,1]  
 BV BOUND     z[3,2]  
 BV BOUND     z[4,1]  
 BV BOUND     z[4,2]  
ENDATA
